Minimize
  __dummy
Subject To
 _C1: var_0_0_00 + var_0_0_01 + var_0_0_02 + var_0_0_03 + var_0_0_04
   + var_0_0_05 + var_0_0_06 + var_0_0_07 + var_0_0_08 + var_0_0_09
   + var_0_0_10 + var_0_0_11 + var_0_0_12 + var_0_0_13 + var_0_0_14
   + var_0_0_15 + var_0_0_16 + var_0_0_17 + var_0_0_18 + var_0_0_19
   + var_0_0_20 + var_0_0_21 + var_0_0_22 + var_0_0_23 + var_0_1_00
   + var_0_1_01 + var_0_1_02 + var_0_1_03 + var_0_1_04 + var_0_1_05
   + var_0_1_06 + var_0_1_07 + var_0_1_08 + var_0_1_09 + var_0_1_10
   + var_0_1_11 + var_0_1_12 + var_0_1_13 + var_0_1_14 + var_0_1_15
   + var_0_1_16 + var_0_1_17 + var_0_1_18 + var_0_1_19 + var_0_1_20
   + var_0_1_21 + var_0_1_22 + var_0_1_23 = 1
 _C10: var_3_0_18 + var_3_0_19 + var_3_0_20 + var_3_0_21 + var_3_0_22
   + var_3_0_23 + var_3_1_18 + var_3_1_19 + var_3_1_20 + var_3_1_21
   + var_3_1_22 + var_3_1_23 = 1
 _C100: 40 var_0_0_23 + 40 var_0_1_23 <= 5
 _C101: 20 var_1_0_00 + 20 var_1_1_00 <= 5
 _C102: 20 var_1_0_01 + 20 var_1_1_01 <= 5
 _C103: 20 var_1_0_02 + 20 var_1_1_02 <= 5
 _C104: 20 var_1_0_03 + 20 var_1_1_03 <= 5
 _C105: 20 var_1_0_04 + 20 var_1_1_04 <= 5
 _C106: 20 var_1_0_05 + 20 var_1_1_05 <= 5
 _C107: 20 var_1_0_06 + 20 var_1_1_06 <= 5
 _C108: 20 var_1_0_07 + 20 var_1_1_07 <= 5
 _C109: 20 var_1_0_08 + 20 var_1_1_08 <= 5
 _C11: var_4_0_00 + var_4_0_01 + var_4_0_02 + var_4_0_03 + var_4_1_00
   + var_4_1_01 + var_4_1_02 + var_4_1_03 = 1
 _C110: 20 var_1_0_09 + 20 var_1_1_09 <= 5
 _C111: 20 var_1_0_10 + 20 var_1_1_10 <= 5
 _C112: 20 var_1_0_11 + 20 var_1_1_11 <= 5
 _C113: 20 var_1_0_12 + 20 var_1_1_12 <= 5
 _C114: 20 var_1_0_13 + 20 var_1_1_13 <= 5
 _C115: 20 var_1_0_14 + 20 var_1_1_14 <= 5
 _C116: 20 var_1_0_15 + 20 var_1_1_15 <= 5
 _C117: 20 var_1_0_16 + 20 var_1_1_16 <= 5
 _C118: 20 var_1_0_17 + 20 var_1_1_17 <= 5
 _C119: 20 var_1_0_18 + 20 var_1_1_18 <= 5
 _C12: var_4_0_04 + var_4_0_05 + var_4_0_06 + var_4_0_07 + var_4_1_04
   + var_4_1_05 + var_4_1_06 + var_4_1_07 = 1
 _C120: 20 var_1_0_19 + 20 var_1_1_19 <= 5
 _C121: 20 var_1_0_20 + 20 var_1_1_20 <= 5
 _C122: 20 var_1_0_21 + 20 var_1_1_21 <= 5
 _C123: 20 var_1_0_22 + 20 var_1_1_22 <= 5
 _C124: 20 var_1_0_23 + 20 var_1_1_23 <= 5
 _C125: 10 var_2_0_00 + 10 var_2_1_00 <= 5
 _C126: 10 var_2_0_01 + 10 var_2_1_01 <= 5
 _C127: 10 var_2_0_02 + 10 var_2_1_02 <= 5
 _C128: 10 var_2_0_03 + 10 var_2_1_03 <= 5
 _C129: 10 var_2_0_04 + 10 var_2_1_04 <= 5
 _C13: var_4_0_08 + var_4_0_09 + var_4_0_10 + var_4_0_11 + var_4_1_08
   + var_4_1_09 + var_4_1_10 + var_4_1_11 = 1
 _C130: 10 var_2_0_05 + 10 var_2_1_05 <= 5
 _C131: 10 var_2_0_06 + 10 var_2_1_06 <= 5
 _C132: 10 var_2_0_07 + 10 var_2_1_07 <= 5
 _C133: 10 var_2_0_08 + 10 var_2_1_08 <= 5
 _C134: 10 var_2_0_09 + 10 var_2_1_09 <= 5
 _C135: 10 var_2_0_10 + 10 var_2_1_10 <= 5
 _C136: 10 var_2_0_11 + 10 var_2_1_11 <= 5
 _C137: 10 var_2_0_12 + 10 var_2_1_12 <= 5
 _C138: 10 var_2_0_13 + 10 var_2_1_13 <= 5
 _C139: 10 var_2_0_14 + 10 var_2_1_14 <= 5
 _C14: var_4_0_12 + var_4_0_13 + var_4_0_14 + var_4_0_15 + var_4_1_12
   + var_4_1_13 + var_4_1_14 + var_4_1_15 = 1
 _C140: 10 var_2_0_15 + 10 var_2_1_15 <= 5
 _C141: 10 var_2_0_16 + 10 var_2_1_16 <= 5
 _C142: 10 var_2_0_17 + 10 var_2_1_17 <= 5
 _C143: 10 var_2_0_18 + 10 var_2_1_18 <= 5
 _C144: 10 var_2_0_19 + 10 var_2_1_19 <= 5
 _C145: 10 var_2_0_20 + 10 var_2_1_20 <= 5
 _C146: 10 var_2_0_21 + 10 var_2_1_21 <= 5
 _C147: 10 var_2_0_22 + 10 var_2_1_22 <= 5
 _C148: 10 var_2_0_23 + 10 var_2_1_23 <= 5
 _C149: 10 var_3_0_00 + 10 var_3_1_00 <= 5
 _C15: var_4_0_16 + var_4_0_17 + var_4_0_18 + var_4_0_19 + var_4_1_16
   + var_4_1_17 + var_4_1_18 + var_4_1_19 = 1
 _C150: 10 var_3_0_01 + 10 var_3_1_01 <= 5
 _C151: 10 var_3_0_02 + 10 var_3_1_02 <= 5
 _C152: 10 var_3_0_03 + 10 var_3_1_03 <= 5
 _C153: 10 var_3_0_04 + 10 var_3_1_04 <= 5
 _C154: 10 var_3_0_05 + 10 var_3_1_05 <= 5
 _C155: 10 var_3_0_06 + 10 var_3_1_06 <= 5
 _C156: 10 var_3_0_07 + 10 var_3_1_07 <= 5
 _C157: 10 var_3_0_08 + 10 var_3_1_08 <= 5
 _C158: 10 var_3_0_09 + 10 var_3_1_09 <= 5
 _C159: 10 var_3_0_10 + 10 var_3_1_10 <= 5
 _C16: var_4_0_20 + var_4_0_21 + var_4_0_22 + var_4_0_23 + var_4_1_20
   + var_4_1_21 + var_4_1_22 + var_4_1_23 = 1
 _C160: 10 var_3_0_11 + 10 var_3_1_11 <= 5
 _C161: 10 var_3_0_12 + 10 var_3_1_12 <= 5
 _C162: 10 var_3_0_13 + 10 var_3_1_13 <= 5
 _C163: 10 var_3_0_14 + 10 var_3_1_14 <= 5
 _C164: 10 var_3_0_15 + 10 var_3_1_15 <= 5
 _C165: 10 var_3_0_16 + 10 var_3_1_16 <= 5
 _C166: 10 var_3_0_17 + 10 var_3_1_17 <= 5
 _C167: 10 var_3_0_18 + 10 var_3_1_18 <= 5
 _C168: 10 var_3_0_19 + 10 var_3_1_19 <= 5
 _C169: 10 var_3_0_20 + 10 var_3_1_20 <= 5
 _C17: var_5_0_00 + var_5_0_01 + var_5_1_00 + var_5_1_01 = 1
 _C170: 10 var_3_0_21 + 10 var_3_1_21 <= 5
 _C171: 10 var_3_0_22 + 10 var_3_1_22 <= 5
 _C172: 10 var_3_0_23 + 10 var_3_1_23 <= 5
 _C173: 5 var_4_0_00 + 5 var_4_1_00 <= 5
 _C174: 5 var_4_0_01 + 5 var_4_1_01 <= 5
 _C175: 5 var_4_0_02 + 5 var_4_1_02 <= 5
 _C176: 5 var_4_0_03 + 5 var_4_1_03 <= 5
 _C177: 5 var_4_0_04 + 5 var_4_1_04 <= 5
 _C178: 5 var_4_0_05 + 5 var_4_1_05 <= 5
 _C179: 5 var_4_0_06 + 5 var_4_1_06 <= 5
 _C18: var_5_0_02 + var_5_0_03 + var_5_1_02 + var_5_1_03 = 1
 _C180: 5 var_4_0_07 + 5 var_4_1_07 <= 5
 _C181: 5 var_4_0_08 + 5 var_4_1_08 <= 5
 _C182: 5 var_4_0_09 + 5 var_4_1_09 <= 5
 _C183: 5 var_4_0_10 + 5 var_4_1_10 <= 5
 _C184: 5 var_4_0_11 + 5 var_4_1_11 <= 5
 _C185: 5 var_4_0_12 + 5 var_4_1_12 <= 5
 _C186: 5 var_4_0_13 + 5 var_4_1_13 <= 5
 _C187: 5 var_4_0_14 + 5 var_4_1_14 <= 5
 _C188: 5 var_4_0_15 + 5 var_4_1_15 <= 5
 _C189: 5 var_4_0_16 + 5 var_4_1_16 <= 5
 _C19: var_5_0_04 + var_5_0_05 + var_5_1_04 + var_5_1_05 = 1
 _C190: 5 var_4_0_17 + 5 var_4_1_17 <= 5
 _C191: 5 var_4_0_18 + 5 var_4_1_18 <= 5
 _C192: 5 var_4_0_19 + 5 var_4_1_19 <= 5
 _C193: 5 var_4_0_20 + 5 var_4_1_20 <= 5
 _C194: 5 var_4_0_21 + 5 var_4_1_21 <= 5
 _C195: 5 var_4_0_22 + 5 var_4_1_22 <= 5
 _C196: 5 var_4_0_23 + 5 var_4_1_23 <= 5
 _C197: 5 var_5_0_00 + 5 var_5_1_00 <= 5
 _C198: 5 var_5_0_01 + 5 var_5_1_01 <= 5
 _C199: 5 var_5_0_02 + 5 var_5_1_02 <= 5
 _C2: var_1_0_00 + var_1_1_00 + var_1_0_01 + var_1_1_01 + var_1_0_02
   + var_1_1_02 + var_1_0_03 + var_1_1_03 + var_1_0_04 + var_1_1_04
   + var_1_0_05 + var_1_1_05 + var_1_0_06 + var_1_1_06 + var_1_0_07
   + var_1_1_07 + var_1_0_08 + var_1_1_08 + var_1_0_09 + var_1_1_09
   + var_1_0_10 + var_1_1_10 + var_1_0_11 + var_1_1_11 = 1
 _C20: var_5_0_06 + var_5_0_07 + var_5_1_06 + var_5_1_07 = 1
 _C200: 5 var_5_0_03 + 5 var_5_1_03 <= 5
 _C201: 5 var_5_0_04 + 5 var_5_1_04 <= 5
 _C202: 5 var_5_0_05 + 5 var_5_1_05 <= 5
 _C203: 5 var_5_0_06 + 5 var_5_1_06 <= 5
 _C204: 5 var_5_0_07 + 5 var_5_1_07 <= 5
 _C205: 5 var_5_0_08 + 5 var_5_1_08 <= 5
 _C206: 5 var_5_0_09 + 5 var_5_1_09 <= 5
 _C207: 5 var_5_0_10 + 5 var_5_1_10 <= 5
 _C208: 5 var_5_0_11 + 5 var_5_1_11 <= 5
 _C209: 5 var_5_0_12 + 5 var_5_1_12 <= 5
 _C21: var_5_0_08 + var_5_1_08 + var_5_0_09 + var_5_1_09 = 1
 _C210: 5 var_5_0_13 + 5 var_5_1_13 <= 5
 _C211: 5 var_5_0_14 + 5 var_5_1_14 <= 5
 _C212: 5 var_5_0_15 + 5 var_5_1_15 <= 5
 _C213: 5 var_5_0_16 + 5 var_5_1_16 <= 5
 _C214: 5 var_5_0_17 + 5 var_5_1_17 <= 5
 _C215: 5 var_5_0_18 + 5 var_5_1_18 <= 5
 _C216: 5 var_5_0_19 + 5 var_5_1_19 <= 5
 _C217: 5 var_5_0_20 + 5 var_5_1_20 <= 5
 _C218: 5 var_5_0_21 + 5 var_5_1_21 <= 5
 _C219: 5 var_5_0_22 + 5 var_5_1_22 <= 5
 _C22: var_5_0_10 + var_5_1_10 + var_5_0_11 + var_5_1_11 = 1
 _C220: 5 var_5_0_23 + 5 var_5_1_23 <= 5
 _C23: var_5_0_12 + var_5_1_12 + var_5_0_13 + var_5_1_13 = 1
 _C24: var_5_0_14 + var_5_1_14 + var_5_0_15 + var_5_1_15 = 1
 _C25: var_5_0_16 + var_5_1_16 + var_5_0_17 + var_5_1_17 = 1
 _C26: var_5_0_18 + var_5_1_18 + var_5_0_19 + var_5_1_19 = 1
 _C27: var_5_0_20 + var_5_1_20 + var_5_0_21 + var_5_1_21 = 1
 _C28: var_5_0_22 + var_5_1_22 + var_5_0_23 + var_5_1_23 = 1
 _C29: 40 var_0_0_00 + 20 var_1_0_00 + 5 var_4_0_00 + 10 var_2_0_00
   + 10 var_3_0_00 + 5 var_5_0_00 <= 5
 _C3: var_1_0_12 + var_1_1_12 + var_1_0_13 + var_1_1_13 + var_1_0_14
   + var_1_1_14 + var_1_0_15 + var_1_1_15 + var_1_0_16 + var_1_1_16
   + var_1_0_17 + var_1_1_17 + var_1_0_18 + var_1_1_18 + var_1_0_19
   + var_1_1_19 + var_1_0_20 + var_1_1_20 + var_1_0_21 + var_1_1_21
   + var_1_0_22 + var_1_1_22 + var_1_0_23 + var_1_1_23 = 1
 _C30: 40 var_0_0_01 + 20 var_1_0_01 + 5 var_4_0_01 + 10 var_2_0_01
   + 10 var_3_0_01 + 5 var_5_0_01 <= 5
 _C31: 40 var_0_0_02 + 20 var_1_0_02 + 5 var_4_0_02 + 10 var_2_0_02
   + 10 var_3_0_02 + 5 var_5_0_02 <= 5
 _C32: 40 var_0_0_03 + 20 var_1_0_03 + 5 var_4_0_03 + 10 var_2_0_03
   + 10 var_3_0_03 + 5 var_5_0_03 <= 5
 _C33: 40 var_0_0_04 + 20 var_1_0_04 + 5 var_4_0_04 + 10 var_2_0_04
   + 10 var_3_0_04 + 5 var_5_0_04 <= 5
 _C34: 40 var_0_0_05 + 20 var_1_0_05 + 5 var_4_0_05 + 10 var_2_0_05
   + 10 var_3_0_05 + 5 var_5_0_05 <= 5
 _C35: 40 var_0_0_06 + 20 var_1_0_06 + 5 var_4_0_06 + 10 var_2_0_06
   + 10 var_3_0_06 + 5 var_5_0_06 <= 5
 _C36: 40 var_0_0_07 + 20 var_1_0_07 + 5 var_4_0_07 + 10 var_2_0_07
   + 10 var_3_0_07 + 5 var_5_0_07 <= 5
 _C37: 40 var_0_0_08 + 20 var_1_0_08 + 5 var_4_0_08 + 10 var_2_0_08
   + 10 var_3_0_08 + 5 var_5_0_08 <= 5
 _C38: 40 var_0_0_09 + 20 var_1_0_09 + 5 var_4_0_09 + 10 var_2_0_09
   + 10 var_3_0_09 + 5 var_5_0_09 <= 5
 _C39: 40 var_0_0_10 + 20 var_1_0_10 + 5 var_4_0_10 + 10 var_2_0_10
   + 10 var_3_0_10 + 5 var_5_0_10 <= 5
 _C4: var_2_0_00 + var_2_1_00 + var_2_0_01 + var_2_1_01 + var_2_0_02
   + var_2_1_02 + var_2_0_03 + var_2_1_03 + var_2_0_04 + var_2_1_04
   + var_2_0_05 + var_2_1_05 + var_2_0_06 + var_2_1_06 + var_2_0_07
   + var_2_1_07 = 1
 _C40: 40 var_0_0_11 + 20 var_1_0_11 + 5 var_4_0_11 + 10 var_2_0_11
   + 10 var_3_0_11 + 5 var_5_0_11 <= 5
 _C41: 40 var_0_0_12 + 20 var_1_0_12 + 10 var_2_0_12 + 5 var_4_0_12
   + 10 var_3_0_12 + 5 var_5_0_12 <= 5
 _C42: 40 var_0_0_13 + 20 var_1_0_13 + 10 var_2_0_13 + 5 var_4_0_13
   + 10 var_3_0_13 + 5 var_5_0_13 <= 5
 _C43: 40 var_0_0_14 + 20 var_1_0_14 + 10 var_2_0_14 + 5 var_4_0_14
   + 10 var_3_0_14 + 5 var_5_0_14 <= 5
 _C44: 40 var_0_0_15 + 20 var_1_0_15 + 5 var_4_0_15 + 10 var_2_0_15
   + 10 var_3_0_15 + 5 var_5_0_15 <= 5
 _C45: 40 var_0_0_16 + 20 var_1_0_16 + 10 var_2_0_16 + 5 var_4_0_16
   + 10 var_3_0_16 + 5 var_5_0_16 <= 5
 _C46: 40 var_0_0_17 + 20 var_1_0_17 + 10 var_2_0_17 + 5 var_4_0_17
   + 10 var_3_0_17 + 5 var_5_0_17 <= 5
 _C47: 40 var_0_0_18 + 10 var_3_0_18 + 20 var_1_0_18 + 10 var_2_0_18
   + 5 var_4_0_18 + 5 var_5_0_18 <= 5
 _C48: 40 var_0_0_19 + 10 var_3_0_19 + 20 var_1_0_19 + 10 var_2_0_19
   + 5 var_4_0_19 + 5 var_5_0_19 <= 5
 _C49: 40 var_0_0_20 + 10 var_3_0_20 + 20 var_1_0_20 + 10 var_2_0_20
   + 5 var_4_0_20 + 5 var_5_0_20 <= 5
 _C5: var_2_0_08 + var_2_1_08 + var_2_0_09 + var_2_1_09 + var_2_0_10
   + var_2_1_10 + var_2_0_11 + var_2_1_11 + var_2_0_12 + var_2_1_12
   + var_2_0_13 + var_2_1_13 + var_2_0_14 + var_2_1_14 + var_2_0_15
   + var_2_1_15 = 1
 _C50: 40 var_0_0_21 + 10 var_3_0_21 + 20 var_1_0_21 + 10 var_2_0_21
   + 5 var_4_0_21 + 5 var_5_0_21 <= 5
 _C51: 40 var_0_0_22 + 10 var_3_0_22 + 20 var_1_0_22 + 10 var_2_0_22
   + 5 var_4_0_22 + 5 var_5_0_22 <= 5
 _C52: 40 var_0_0_23 + 10 var_3_0_23 + 20 var_1_0_23 + 10 var_2_0_23
   + 5 var_4_0_23 + 5 var_5_0_23 <= 5
 _C53: 40 var_0_1_00 + 20 var_1_1_00 + 5 var_4_1_00 + 10 var_2_1_00
   + 10 var_3_1_00 + 5 var_5_1_00 <= 5
 _C54: 40 var_0_1_01 + 20 var_1_1_01 + 5 var_4_1_01 + 10 var_2_1_01
   + 10 var_3_1_01 + 5 var_5_1_01 <= 5
 _C55: 40 var_0_1_02 + 20 var_1_1_02 + 5 var_4_1_02 + 10 var_2_1_02
   + 10 var_3_1_02 + 5 var_5_1_02 <= 5
 _C56: 40 var_0_1_03 + 20 var_1_1_03 + 5 var_4_1_03 + 10 var_2_1_03
   + 10 var_3_1_03 + 5 var_5_1_03 <= 5
 _C57: 40 var_0_1_04 + 20 var_1_1_04 + 5 var_4_1_04 + 10 var_2_1_04
   + 10 var_3_1_04 + 5 var_5_1_04 <= 5
 _C58: 40 var_0_1_05 + 20 var_1_1_05 + 5 var_4_1_05 + 10 var_2_1_05
   + 10 var_3_1_05 + 5 var_5_1_05 <= 5
 _C59: 40 var_0_1_06 + 20 var_1_1_06 + 5 var_4_1_06 + 10 var_2_1_06
   + 10 var_3_1_06 + 5 var_5_1_06 <= 5
 _C6: var_2_0_16 + var_2_1_16 + var_2_0_17 + var_2_1_17 + var_2_0_18
   + var_2_1_18 + var_2_0_19 + var_2_1_19 + var_2_0_20 + var_2_1_20
   + var_2_0_21 + var_2_1_21 + var_2_0_22 + var_2_1_22 + var_2_0_23
   + var_2_1_23 = 1
 _C60: 40 var_0_1_07 + 20 var_1_1_07 + 5 var_4_1_07 + 10 var_2_1_07
   + 10 var_3_1_07 + 5 var_5_1_07 <= 5
 _C61: 40 var_0_1_08 + 20 var_1_1_08 + 5 var_4_1_08 + 10 var_2_1_08
   + 10 var_3_1_08 + 5 var_5_1_08 <= 5
 _C62: 40 var_0_1_09 + 20 var_1_1_09 + 5 var_4_1_09 + 10 var_2_1_09
   + 10 var_3_1_09 + 5 var_5_1_09 <= 5
 _C63: 40 var_0_1_10 + 20 var_1_1_10 + 5 var_4_1_10 + 10 var_2_1_10
   + 10 var_3_1_10 + 5 var_5_1_10 <= 5
 _C64: 40 var_0_1_11 + 20 var_1_1_11 + 5 var_4_1_11 + 10 var_2_1_11
   + 10 var_3_1_11 + 5 var_5_1_11 <= 5
 _C65: 40 var_0_1_12 + 20 var_1_1_12 + 10 var_2_1_12 + 5 var_4_1_12
   + 10 var_3_1_12 + 5 var_5_1_12 <= 5
 _C66: 40 var_0_1_13 + 20 var_1_1_13 + 10 var_2_1_13 + 5 var_4_1_13
   + 10 var_3_1_13 + 5 var_5_1_13 <= 5
 _C67: 40 var_0_1_14 + 20 var_1_1_14 + 10 var_2_1_14 + 5 var_4_1_14
   + 10 var_3_1_14 + 5 var_5_1_14 <= 5
 _C68: 40 var_0_1_15 + 20 var_1_1_15 + 5 var_4_1_15 + 10 var_2_1_15
   + 10 var_3_1_15 + 5 var_5_1_15 <= 5
 _C69: 40 var_0_1_16 + 20 var_1_1_16 + 10 var_2_1_16 + 5 var_4_1_16
   + 10 var_3_1_16 + 5 var_5_1_16 <= 5
 _C7: var_3_0_00 + var_3_1_00 + var_3_0_01 + var_3_1_01 + var_3_0_02
   + var_3_1_02 + var_3_0_03 + var_3_1_03 + var_3_0_04 + var_3_1_04
   + var_3_0_05 + var_3_1_05 = 1
 _C70: 40 var_0_1_17 + 20 var_1_1_17 + 10 var_2_1_17 + 5 var_4_1_17
   + 10 var_3_1_17 + 5 var_5_1_17 <= 5
 _C71: 40 var_0_1_18 + 10 var_3_1_18 + 20 var_1_1_18 + 10 var_2_1_18
   + 5 var_4_1_18 + 5 var_5_1_18 <= 5
 _C72: 40 var_0_1_19 + 10 var_3_1_19 + 20 var_1_1_19 + 10 var_2_1_19
   + 5 var_4_1_19 + 5 var_5_1_19 <= 5
 _C73: 40 var_0_1_20 + 10 var_3_1_20 + 20 var_1_1_20 + 10 var_2_1_20
   + 5 var_4_1_20 + 5 var_5_1_20 <= 5
 _C74: 40 var_0_1_21 + 10 var_3_1_21 + 20 var_1_1_21 + 10 var_2_1_21
   + 5 var_4_1_21 + 5 var_5_1_21 <= 5
 _C75: 40 var_0_1_22 + 10 var_3_1_22 + 20 var_1_1_22 + 10 var_2_1_22
   + 5 var_4_1_22 + 5 var_5_1_22 <= 5
 _C76: 40 var_0_1_23 + 10 var_3_1_23 + 20 var_1_1_23 + 10 var_2_1_23
   + 5 var_4_1_23 + 5 var_5_1_23 <= 5
 _C77: 40 var_0_0_00 + 40 var_0_1_00 <= 5
 _C78: 40 var_0_0_01 + 40 var_0_1_01 <= 5
 _C79: 40 var_0_0_02 + 40 var_0_1_02 <= 5
 _C8: var_3_0_06 + var_3_1_06 + var_3_0_07 + var_3_1_07 + var_3_0_08
   + var_3_1_08 + var_3_0_09 + var_3_1_09 + var_3_0_10 + var_3_1_10
   + var_3_0_11 + var_3_1_11 = 1
 _C80: 40 var_0_0_03 + 40 var_0_1_03 <= 5
 _C81: 40 var_0_0_04 + 40 var_0_1_04 <= 5
 _C82: 40 var_0_0_05 + 40 var_0_1_05 <= 5
 _C83: 40 var_0_0_06 + 40 var_0_1_06 <= 5
 _C84: 40 var_0_0_07 + 40 var_0_1_07 <= 5
 _C85: 40 var_0_0_08 + 40 var_0_1_08 <= 5
 _C86: 40 var_0_0_09 + 40 var_0_1_09 <= 5
 _C87: 40 var_0_0_10 + 40 var_0_1_10 <= 5
 _C88: 40 var_0_0_11 + 40 var_0_1_11 <= 5
 _C89: 40 var_0_0_12 + 40 var_0_1_12 <= 5
 _C9: var_3_0_12 + var_3_1_12 + var_3_0_13 + var_3_1_13 + var_3_0_14
   + var_3_1_14 + var_3_0_15 + var_3_1_15 + var_3_0_16 + var_3_1_16
   + var_3_0_17 + var_3_1_17 = 1
 _C90: 40 var_0_0_13 + 40 var_0_1_13 <= 5
 _C91: 40 var_0_0_14 + 40 var_0_1_14 <= 5
 _C92: 40 var_0_0_15 + 40 var_0_1_15 <= 5
 _C93: 40 var_0_0_16 + 40 var_0_1_16 <= 5
 _C94: 40 var_0_0_17 + 40 var_0_1_17 <= 5
 _C95: 40 var_0_0_18 + 40 var_0_1_18 <= 5
 _C96: 40 var_0_0_19 + 40 var_0_1_19 <= 5
 _C97: 40 var_0_0_20 + 40 var_0_1_20 <= 5
 _C98: 40 var_0_0_21 + 40 var_0_1_21 <= 5
 _C99: 40 var_0_0_22 + 40 var_0_1_22 <= 5
Bounds
 __dummy = 0
 var_0_0_00 <= 1
 var_0_0_01 <= 1
 var_0_0_02 <= 1
 var_0_0_03 <= 1
 var_0_0_04 <= 1
 var_0_0_05 <= 1
 var_0_0_06 <= 1
 var_0_0_07 <= 1
 var_0_0_08 <= 1
 var_0_0_09 <= 1
 var_0_0_10 <= 1
 var_0_0_11 <= 1
 var_0_0_12 <= 1
 var_0_0_13 <= 1
 var_0_0_14 <= 1
 var_0_0_15 <= 1
 var_0_0_16 <= 1
 var_0_0_17 <= 1
 var_0_0_18 <= 1
 var_0_0_19 <= 1
 var_0_0_20 <= 1
 var_0_0_21 <= 1
 var_0_0_22 <= 1
 var_0_0_23 <= 1
 var_0_1_00 <= 1
 var_0_1_01 <= 1
 var_0_1_02 <= 1
 var_0_1_03 <= 1
 var_0_1_04 <= 1
 var_0_1_05 <= 1
 var_0_1_06 <= 1
 var_0_1_07 <= 1
 var_0_1_08 <= 1
 var_0_1_09 <= 1
 var_0_1_10 <= 1
 var_0_1_11 <= 1
 var_0_1_12 <= 1
 var_0_1_13 <= 1
 var_0_1_14 <= 1
 var_0_1_15 <= 1
 var_0_1_16 <= 1
 var_0_1_17 <= 1
 var_0_1_18 <= 1
 var_0_1_19 <= 1
 var_0_1_20 <= 1
 var_0_1_21 <= 1
 var_0_1_22 <= 1
 var_0_1_23 <= 1
 var_3_0_18 <= 1
 var_3_0_19 <= 1
 var_3_0_20 <= 1
 var_3_0_21 <= 1
 var_3_0_22 <= 1
 var_3_0_23 <= 1
 var_3_1_18 <= 1
 var_3_1_19 <= 1
 var_3_1_20 <= 1
 var_3_1_21 <= 1
 var_3_1_22 <= 1
 var_3_1_23 <= 1
 var_1_0_00 <= 1
 var_1_1_00 <= 1
 var_1_0_01 <= 1
 var_1_1_01 <= 1
 var_1_0_02 <= 1
 var_1_1_02 <= 1
 var_1_0_03 <= 1
 var_1_1_03 <= 1
 var_1_0_04 <= 1
 var_1_1_04 <= 1
 var_1_0_05 <= 1
 var_1_1_05 <= 1
 var_1_0_06 <= 1
 var_1_1_06 <= 1
 var_1_0_07 <= 1
 var_1_1_07 <= 1
 var_1_0_08 <= 1
 var_1_1_08 <= 1
 var_4_0_00 <= 1
 var_4_0_01 <= 1
 var_4_0_02 <= 1
 var_4_0_03 <= 1
 var_4_1_00 <= 1
 var_4_1_01 <= 1
 var_4_1_02 <= 1
 var_4_1_03 <= 1
 var_1_0_09 <= 1
 var_1_1_09 <= 1
 var_1_0_10 <= 1
 var_1_1_10 <= 1
 var_1_0_11 <= 1
 var_1_1_11 <= 1
 var_1_0_12 <= 1
 var_1_1_12 <= 1
 var_1_0_13 <= 1
 var_1_1_13 <= 1
 var_1_0_14 <= 1
 var_1_1_14 <= 1
 var_1_0_15 <= 1
 var_1_1_15 <= 1
 var_1_0_16 <= 1
 var_1_1_16 <= 1
 var_1_0_17 <= 1
 var_1_1_17 <= 1
 var_1_0_18 <= 1
 var_1_1_18 <= 1
 var_4_0_04 <= 1
 var_4_0_05 <= 1
 var_4_0_06 <= 1
 var_4_0_07 <= 1
 var_4_1_04 <= 1
 var_4_1_05 <= 1
 var_4_1_06 <= 1
 var_4_1_07 <= 1
 var_1_0_19 <= 1
 var_1_1_19 <= 1
 var_1_0_20 <= 1
 var_1_1_20 <= 1
 var_1_0_21 <= 1
 var_1_1_21 <= 1
 var_1_0_22 <= 1
 var_1_1_22 <= 1
 var_1_0_23 <= 1
 var_1_1_23 <= 1
 var_2_0_00 <= 1
 var_2_1_00 <= 1
 var_2_0_01 <= 1
 var_2_1_01 <= 1
 var_2_0_02 <= 1
 var_2_1_02 <= 1
 var_2_0_03 <= 1
 var_2_1_03 <= 1
 var_2_0_04 <= 1
 var_2_1_04 <= 1
 var_4_0_08 <= 1
 var_4_0_09 <= 1
 var_4_0_10 <= 1
 var_4_0_11 <= 1
 var_4_1_08 <= 1
 var_4_1_09 <= 1
 var_4_1_10 <= 1
 var_4_1_11 <= 1
 var_2_0_05 <= 1
 var_2_1_05 <= 1
 var_2_0_06 <= 1
 var_2_1_06 <= 1
 var_2_0_07 <= 1
 var_2_1_07 <= 1
 var_2_0_08 <= 1
 var_2_1_08 <= 1
 var_2_0_09 <= 1
 var_2_1_09 <= 1
 var_2_0_10 <= 1
 var_2_1_10 <= 1
 var_2_0_11 <= 1
 var_2_1_11 <= 1
 var_2_0_12 <= 1
 var_2_1_12 <= 1
 var_2_0_13 <= 1
 var_2_1_13 <= 1
 var_2_0_14 <= 1
 var_2_1_14 <= 1
 var_4_0_12 <= 1
 var_4_0_13 <= 1
 var_4_0_14 <= 1
 var_4_0_15 <= 1
 var_4_1_12 <= 1
 var_4_1_13 <= 1
 var_4_1_14 <= 1
 var_4_1_15 <= 1
 var_2_0_15 <= 1
 var_2_1_15 <= 1
 var_2_0_16 <= 1
 var_2_1_16 <= 1
 var_2_0_17 <= 1
 var_2_1_17 <= 1
 var_2_0_18 <= 1
 var_2_1_18 <= 1
 var_2_0_19 <= 1
 var_2_1_19 <= 1
 var_2_0_20 <= 1
 var_2_1_20 <= 1
 var_2_0_21 <= 1
 var_2_1_21 <= 1
 var_2_0_22 <= 1
 var_2_1_22 <= 1
 var_2_0_23 <= 1
 var_2_1_23 <= 1
 var_3_0_00 <= 1
 var_3_1_00 <= 1
 var_4_0_16 <= 1
 var_4_0_17 <= 1
 var_4_0_18 <= 1
 var_4_0_19 <= 1
 var_4_1_16 <= 1
 var_4_1_17 <= 1
 var_4_1_18 <= 1
 var_4_1_19 <= 1
 var_3_0_01 <= 1
 var_3_1_01 <= 1
 var_3_0_02 <= 1
 var_3_1_02 <= 1
 var_3_0_03 <= 1
 var_3_1_03 <= 1
 var_3_0_04 <= 1
 var_3_1_04 <= 1
 var_3_0_05 <= 1
 var_3_1_05 <= 1
 var_3_0_06 <= 1
 var_3_1_06 <= 1
 var_3_0_07 <= 1
 var_3_1_07 <= 1
 var_3_0_08 <= 1
 var_3_1_08 <= 1
 var_3_0_09 <= 1
 var_3_1_09 <= 1
 var_3_0_10 <= 1
 var_3_1_10 <= 1
 var_4_0_20 <= 1
 var_4_0_21 <= 1
 var_4_0_22 <= 1
 var_4_0_23 <= 1
 var_4_1_20 <= 1
 var_4_1_21 <= 1
 var_4_1_22 <= 1
 var_4_1_23 <= 1
 var_3_0_11 <= 1
 var_3_1_11 <= 1
 var_3_0_12 <= 1
 var_3_1_12 <= 1
 var_3_0_13 <= 1
 var_3_1_13 <= 1
 var_3_0_14 <= 1
 var_3_1_14 <= 1
 var_3_0_15 <= 1
 var_3_1_15 <= 1
 var_3_0_16 <= 1
 var_3_1_16 <= 1
 var_3_0_17 <= 1
 var_3_1_17 <= 1
 var_5_0_00 <= 1
 var_5_0_01 <= 1
 var_5_1_00 <= 1
 var_5_1_01 <= 1
 var_5_0_02 <= 1
 var_5_0_03 <= 1
 var_5_1_02 <= 1
 var_5_1_03 <= 1
 var_5_0_04 <= 1
 var_5_0_05 <= 1
 var_5_1_04 <= 1
 var_5_1_05 <= 1
 var_5_0_06 <= 1
 var_5_0_07 <= 1
 var_5_1_06 <= 1
 var_5_1_07 <= 1
 var_5_0_08 <= 1
 var_5_1_08 <= 1
 var_5_0_09 <= 1
 var_5_1_09 <= 1
 var_5_0_10 <= 1
 var_5_1_10 <= 1
 var_5_0_11 <= 1
 var_5_1_11 <= 1
 var_5_0_12 <= 1
 var_5_1_12 <= 1
 var_5_0_13 <= 1
 var_5_1_13 <= 1
 var_5_0_14 <= 1
 var_5_1_14 <= 1
 var_5_0_15 <= 1
 var_5_1_15 <= 1
 var_5_0_16 <= 1
 var_5_1_16 <= 1
 var_5_0_17 <= 1
 var_5_1_17 <= 1
 var_5_0_18 <= 1
 var_5_1_18 <= 1
 var_5_0_19 <= 1
 var_5_1_19 <= 1
 var_5_0_20 <= 1
 var_5_1_20 <= 1
 var_5_0_21 <= 1
 var_5_1_21 <= 1
 var_5_0_22 <= 1
 var_5_1_22 <= 1
 var_5_0_23 <= 1
 var_5_1_23 <= 1
End
